SPARKNaCl/why3-z3/sparknacl-aes.adb_645_13_range_check6_1.smt2
;; produced by z3_gnatprove.drv ;;
(set-info :smt-lib-version 2.5)
(set-info :source |VC generated by SPARK 2014|)
(set-info :category industrial)
(set-info :status unknown)
;;; generated by SMT-LIB2 driver
;;; SMT-LIB2 driver: bit-vectors, common part
;;; SMT-LIB2: integer arithmetic
(define-fun __cdiv ((x Int) (y Int)) Int (ite (>= x 0) (div x y) (- (div (- x) y))))
(define-fun __cmod ((x Int) (y Int)) Int (ite (>= x 0) (mod x y) (- (mod (- x) y))))
(declare-datatypes ()
  ((int__ref (int__refqtmk (int__content Int)))))

;; "mod"
(define-fun mod1 ((x Int) (y Int)) Int
  (ite (<= 0 y) (mod x y) (- (mod (- x) y))))

(declare-datatypes ()
  ((t__ref (t__refqtmk (t__content (_ BitVec 32))))))

(declare-sort u32 0)

;; "to_rep"
(declare-fun to_rep (u32) (_ BitVec 32))

;; "of_rep"
(declare-fun of_rep ((_ BitVec 32)) u32)

;; "inversion_axiom"
(assert
  (forall ((x u32)) (! (= (of_rep (to_rep x)) x) :pattern ((to_rep x)) )))

;; "range_axiom"
(assert true)

;; "coerce_axiom"
(assert
  (forall ((x (_ BitVec 32)))
    (! (= (to_rep (of_rep x)) x) :pattern ((to_rep (of_rep x))) )))

(declare-sort map1 0)

(declare-datatypes ()
  ((map__ref (map__refqtmk (map__content map1)))))

;; "has_bounds"
(declare-fun has_bounds (map1
  Int
  Int) Bool)

;; "get"
(declare-fun get (map1
  Int) u32)

;; "set"
(declare-fun set (map1
  Int
  u32) map1)

;; "set_eq"
(assert
  (forall ((a map1) (i Int) (v u32))
    (! (= (get (set a i v) i) v) :pattern ((set a i v)) )))

;; "set_neq"
(assert
  (forall ((a map1) (i Int) (v u32))
    (! (forall ((j Int))
         (! (=> (not (= i j)) (= (get (set a i v) j) (get a j))) :pattern (
         (get
           a
           j)) :pattern ((get (set a i v) j)) )) :pattern ((set a i v)) )))

;; "set_has_bounds"
(assert
  (forall ((a map1) (i Int) (f Int) (l Int) (v u32))
    (! (=>
         (and (<= f i) (<= i l))
         (=> (has_bounds a f l) (has_bounds (set a i v) f l))) :pattern (
    (has_bounds
      (set a i v)
      f
      l)) )))

;; "slide"
(declare-fun slide (map1
  Int
  Int) map1)

;; "slide_eq"
(assert
  (forall ((a map1) (first Int))
    (! (= (slide a first first) a) :pattern ((slide a first first)) )))

;; "slide_def"
(assert
  (forall ((a map1) (old_first Int) (new_first Int))
    (! (and
         (forall ((i Int))
           (! (= (get (slide a old_first new_first) i) (get
                                                         a
                                                         (- i (- new_first old_first)))) :pattern (
           (get
             (slide a old_first new_first)
             i)) ))
         (forall ((new_last Int))
           (! (=>
                (has_bounds a old_first (- new_last (- new_first old_first)))
                (has_bounds (slide a old_first new_first) new_first new_last)) :pattern (
           (has_bounds
             (slide a old_first new_first)
             new_first
             new_last)) ))) :pattern ((slide a old_first new_first)) )))

;; "slice"
(declare-fun slice (map1
  Int
  Int) map1)

;; "slice_eq"
(assert
  (forall ((a map1) (f Int) (l Int))
    (! (=> (has_bounds a f l) (= (slice a f l) a)) :pattern ((slice a f l)
    (has_bounds a f l)) )))

;; "slice_slice"
(assert
  (forall ((a map1) (f1 Int) (l1 Int) (f2 Int) (l2 Int))
    (! (=>
         (and (<= f1 f2) (<= l2 l1))
         (= (slice (slice a f1 l1) f2 l2) (slice a f2 l2))) :pattern (
    (slice
      (slice a f1 l1)
      f2
      l2)) )))

;; "slice_def"
(assert
  (forall ((a map1) (f Int) (l Int))
    (! (forall ((i Int))
         (! (=> (and (<= f i) (<= i l)) (= (get (slice a f l) i) (get a i))) :pattern (
         (get
           (slice a f l)
           i)) :pattern ((get a i)) )) :pattern ((slice a f l)) )))

;; "slice_has_bounds"
(assert
  (forall ((a map1) (f Int) (l Int))
    (! (has_bounds (slice a f l) f l) :pattern ((has_bounds
                                                  (slice a f l)
                                                  f
                                                  l)) )))

(declare-datatypes ()
  ((us_split_fields
   (us_split_fieldsqtmk (rec__ada___sparknacl__aes__aes256_key__f map1)))))

(declare-datatypes ()
  ((us_rep (us_repqtmk (us_split_fields1 us_split_fields)))))

(declare-datatypes ()
  ((u32__init_wrapper
   (u32__init_wrapperqtmk (rec__value u32)(us_attr__init Bool)))))

(declare-sort map2 0)

;; "has_bounds"
(declare-fun has_bounds1 (map2
  Int
  Int) Bool)

;; "get"
(declare-fun get1 (map2
  Int) u32__init_wrapper)

;; "convert"
(declare-fun convert (map1) map2)

;; "convert__def"
(assert
  (forall ((a map1))
    (let ((b (convert a)))
      (forall ((temp___170 Int))
        (and
          (= (us_attr__init
               (u32__init_wrapperqtmk
                 (of_rep (to_rep (get a temp___170)))
                 true)) (us_attr__init (get1 b temp___170)))
          (= (to_rep
               (rec__value
                 (u32__init_wrapperqtmk
                   (of_rep (to_rep (get a temp___170)))
                   true))) (to_rep (rec__value (get1 b temp___170)))))))))

;; "dynamic_invariant"
(define-fun dynamic_invariant ((temp___expr_376 us_rep) (temp___is_init_372 Bool) (temp___skip_constant_373 Bool) (temp___do_toplevel_374 Bool) (temp___do_typ_inv_375 Bool)) Bool
  (has_bounds
    (rec__ada___sparknacl__aes__aes256_key__f
      (us_split_fields1 temp___expr_376))
    0
    7))

(declare-sort map3 0)

(declare-datatypes ()
  ((map__ref1 (map__refqtmk1 (map__content1 map3)))))

;; "has_bounds"
(declare-fun has_bounds2 (map3
  Int
  Int) Bool)

;; "get"
(declare-fun get2 (map3
  Int) map2)

;; "set"
(declare-fun set1 (map3
  Int
  map2) map3)

;; "set_eq"
(assert
  (forall ((a map3) (i Int) (v map2))
    (! (= (get2 (set1 a i v) i) v) :pattern ((set1 a i v)) )))

;; "set_neq"
(assert
  (forall ((a map3) (i Int) (v map2))
    (! (forall ((j Int))
         (! (=> (not (= i j)) (= (get2 (set1 a i v) j) (get2 a j))) :pattern (
         (get2
           a
           j)) :pattern ((get2 (set1 a i v) j)) )) :pattern ((set1 a i v)) )))

;; "set_has_bounds"
(assert
  (forall ((a map3) (i Int) (f Int) (l Int) (v map2))
    (! (=>
         (and (<= f i) (<= i l))
         (=> (has_bounds2 a f l) (has_bounds2 (set1 a i v) f l))) :pattern (
    (has_bounds2
      (set1 a i v)
      f
      l)) )))

;; "slice"
(declare-fun slice1 (map3
  Int
  Int) map3)

;; "slice_eq"
(assert
  (forall ((a map3) (f Int) (l Int))
    (! (=> (has_bounds2 a f l) (= (slice1 a f l) a)) :pattern ((slice1 a f l)
    (has_bounds2 a f l)) )))

;; "slice_slice"
(assert
  (forall ((a map3) (f1 Int) (l1 Int) (f2 Int) (l2 Int))
    (! (=>
         (and (<= f1 f2) (<= l2 l1))
         (= (slice1 (slice1 a f1 l1) f2 l2) (slice1 a f2 l2))) :pattern (
    (slice1
      (slice1 a f1 l1)
      f2
      l2)) )))

;; "slice_def"
(assert
  (forall ((a map3) (f Int) (l Int))
    (! (forall ((i Int))
         (! (=>
              (and (<= f i) (<= i l))
              (= (get2 (slice1 a f l) i) (get2 a i))) :pattern ((get2
                                                                  (slice1
                                                                    a
                                                                    f
                                                                    l)
                                                                  i)) :pattern (
         (get2
           a
           i)) )) :pattern ((slice1 a f l)) )))

;; "slice_has_bounds"
(assert
  (forall ((a map3) (f Int) (l Int))
    (! (has_bounds2 (slice1 a f l) f l) :pattern ((has_bounds2
                                                    (slice1 a f l)
                                                    f
                                                    l)) )))

;; "in_range"
(define-fun in_range ((x Int)) Bool
  (and (<= 0 x) (<= x 14)))

;; "__is_initialized"
(define-fun us_is_initialized ((temp___expr_464 map2)) Bool
  (forall ((temp___465 Int))
    (=>
      (and (<= 0 temp___465) (<= temp___465 3))
      (= (us_attr__init (get1 temp___expr_464 temp___465)) true))))

;; "dynamic_invariant_r"
(define-fun dynamic_invariant_r ((temp___expr_483 map3) (temp___is_init_479 Bool) (temp___skip_constant_480 Bool) (temp___do_toplevel_481 Bool) (temp___do_typ_inv_482 Bool)) Bool
  (and
    (has_bounds2 temp___expr_483 0 14)
    (forall ((temp___484 Int))
      (=>
        (and (<= 0 temp___484) (<= temp___484 14))
        (has_bounds1 (get2 temp___expr_483 temp___484) 0 3)))))

(declare-const key us_rep)

;; "sbox"
(declare-fun sbox ((_ BitVec 32)) (_ BitVec 32))

;; "sbox__function_guard"
(declare-fun sbox__function_guard ((_ BitVec 32)
  (_ BitVec 32)) Bool)

;; "x_times"
(declare-fun x_times ((_ BitVec 32)) (_ BitVec 32))

;; "x_times__function_guard"
(declare-fun x_times__function_guard ((_ BitVec 32)
  (_ BitVec 32)) Bool)

(declare-sort tinteger_32B 0)

;; "tinteger_32B'int"
(declare-fun tinteger_32Bqtint (tinteger_32B) Int)

;; "tinteger_32B'axiom"
(assert
  (forall ((i tinteger_32B))
    (and
      (<= (- 2147483648) (tinteger_32Bqtint i))
      (<= (tinteger_32Bqtint i) 2147483647))))

;; "in_range"
(define-fun in_range1 ((x Int)) Bool
  (and (<= (- 2147483648) x) (<= x 2147483647)))

;; "to_rep"
(define-fun to_rep1 ((x tinteger_32B)) Int
  (tinteger_32Bqtint x))

;; "of_rep"
(declare-fun of_rep1 (Int) tinteger_32B)

;; "inversion_axiom"
(assert
  (forall ((x tinteger_32B))
    (! (= (of_rep1 (to_rep1 x)) x) :pattern ((to_rep1 x)) )))

;; "range_axiom"
(assert
  (forall ((x tinteger_32B))
    (! (in_range1 (to_rep1 x)) :pattern ((to_rep1 x)) )))

;; "coerce_axiom"
(assert
  (forall ((x Int))
    (! (=> (in_range1 x) (= (to_rep1 (of_rep1 x)) x)) :pattern ((to_rep1
                                                                  (of_rep1 x))) )))

(declare-datatypes ()
  ((t (tqtmk (rec__first tinteger_32B)(rec__last tinteger_32B)))))

;; "mk"
(declare-fun mk (Int
  Int) t)

;; "mk_def"
(assert
  (forall ((f Int) (l Int))
    (! (=>
         (in_range1 f)
         (=>
           (in_range1 l)
           (and
             (= (to_rep1 (rec__first (mk f l))) f)
             (= (to_rep1 (rec__last (mk f l))) l)))) :pattern ((mk f l)) )))

(declare-datatypes ()
  ((us_t (us_tqtmk (elts map1)(rt t)))))

;; "of_array"
(define-fun of_array ((a map1) (f Int) (l Int)) us_t
  (us_tqtmk a (mk f l)))

(declare-datatypes ()
  ((t1 (tqtmk1 (rec__first1 tinteger_32B)(rec__last1 tinteger_32B)))))

;; "mk"
(declare-fun mk1 (Int
  Int) t1)

;; "mk_def"
(assert
  (forall ((f Int) (l Int))
    (! (=>
         (in_range1 f)
         (=>
           (in_range1 l)
           (and
             (= (to_rep1 (rec__first1 (mk1 f l))) f)
             (= (to_rep1 (rec__last1 (mk1 f l))) l)))) :pattern ((mk1 f l)) )))

(declare-datatypes ()
  ((us_t1 (us_tqtmk1 (elts1 map3)(rt1 t1)))))

;; "of_array"
(define-fun of_array1 ((a map3) (f Int) (l Int)) us_t1
  (us_tqtmk1 a (mk1 f l)))

(declare-const round_keys map3)

;; "round_keys'unused"
(define-fun round_keysqtunused () map__ref1
  (map__refqtmk1 round_keys))

;; "Assume"
(assert (dynamic_invariant key true false true true))

;; "Assume"
(assert (dynamic_invariant_r round_keys false false true true))

(declare-const key_index Int)

;; "key_index'unused"
(define-fun key_indexqtunused () int__ref
  (int__refqtmk key_index))

;; "H"
(assert (= key_index 0))

;; "Assume"
(assert (in_range key_index))

(declare-const rcon (_ BitVec 32))

;; "rcon'unused"
(define-fun rconqtunused () t__ref
  (t__refqtmk rcon))

;; "H"
(assert (= rcon #x01000000))

;; "Assume"
(assert true)

;; "o"
(define-fun o () us_split_fields
  (us_split_fields1 key))

;; "__split_fields'result'unused"
(define-fun us_split_fieldsqtresultqtunused () us_split_fields
  o)

;; "temp___1204"
(define-fun temp___1204 () map1
  (rec__ada___sparknacl__aes__aes256_key__f o))

;; "rec__ada___sparknacl__aes__aes256_key__f'result'unused"
(define-fun rec__ada___sparknacl__aes__aes256_key__fqtresultqtunused 
  () map1
  temp___1204)

;; "Assert"
(assert (=> (<= 0 3) (and (and (<= 0 0) (<= 0 7)) (and (<= 0 3) (<= 3 7)))))

;; "o"
(define-fun o1 () map1
  (slice temp___1204 0 3))

;; "slice'result'unused"
(define-fun sliceqtresultqtunused () map1
  o1)

;; "temp___1207"
(define-fun temp___1207 () us_t
  (of_array o1 0 3))

;; "of_array'result'unused"
(define-fun of_arrayqtresultqtunused () us_t
  temp___1207)

;; "o"
(define-fun o2 () Int
  0)

;; "first'result'unused"
(define-fun firstqtresultqtunused () Int
  o2)

;; "o"
(define-fun o3 () map1
  o1)

;; "to_array'result'unused"
(define-fun to_arrayqtresultqtunused () map1
  o3)

;; "temp___1208"
(define-fun temp___1208 () map1
  (slide o3 o2 0))

;; "slide'result'unused"
(define-fun slideqtresultqtunused () map1
  temp___1208)

;; "Assert"
(assert (ite (<= 0 3) (<= 0 3) (< 3 0)))

(declare-const a map1)

;; "a'unused"
(define-fun aqtunused () map__ref
  (map__refqtmk a))

;; "H"
(assert (= a temp___1208))

;; "Assume"
(assert (has_bounds a 0 3))

;; "o"
(define-fun o4 () us_split_fields
  (us_split_fields1 key))

;; "__split_fields'result'unused"
(define-fun us_split_fieldsqtresultqtunused1 () us_split_fields
  o4)

;; "temp___1210"
(define-fun temp___1210 () map1
  (rec__ada___sparknacl__aes__aes256_key__f o4))

;; "rec__ada___sparknacl__aes__aes256_key__f'result'unused"
(define-fun rec__ada___sparknacl__aes__aes256_key__fqtresultqtunused1 
  () map1
  temp___1210)

;; "Assert"
(assert (=> (<= 4 7) (and (and (<= 0 4) (<= 4 7)) (and (<= 0 7) (<= 7 7)))))

;; "o"
(define-fun o5 () map1
  (slice temp___1210 4 7))

;; "slice'result'unused"
(define-fun sliceqtresultqtunused1 () map1
  o5)

;; "temp___1213"
(define-fun temp___1213 () us_t
  (of_array o5 4 7))

;; "of_array'result'unused"
(define-fun of_arrayqtresultqtunused1 () us_t
  temp___1213)

;; "o"
(define-fun o6 () Int
  4)

;; "first'result'unused"
(define-fun firstqtresultqtunused1 () Int
  o6)

;; "o"
(define-fun o7 () map1
  o5)

;; "to_array'result'unused"
(define-fun to_arrayqtresultqtunused1 () map1
  o7)

;; "temp___1214"
(define-fun temp___1214 () map1
  (slide o7 o6 0))

;; "slide'result'unused"
(define-fun slideqtresultqtunused1 () map1
  temp___1214)

;; "Assert"
(assert (ite (<= 4 7) (and (<= 0 3) (= (- 7 4) (- 3 0))) (< 3 0)))

(declare-const b map1)

;; "b'unused"
(define-fun bqtunused () map__ref
  (map__refqtmk b))

;; "H"
(assert (= b temp___1214))

;; "Assume"
(assert (has_bounds b 0 3))

;; "map__content'result'unused"
(define-fun map__contentqtresultqtunused () map1
  a)

;; "o"
(define-fun o8 () map2
  (convert a))

;; "convert'result'unused"
(define-fun convertqtresultqtunused () map2
  o8)

;; "int__content'result'unused"
(define-fun int__contentqtresultqtunused () Int
  key_index)

;; "map__content'result'unused"
(define-fun map__contentqtresultqtunused1 () map3
  round_keys)

;; "o"
(define-fun o9 () map3
  (set1 round_keys key_index o8))

;; "set'result'unused"
(define-fun setqtresultqtunused () map3
  o9)

(declare-const round_keys1 map3)

;; "round_keys'unused"
(define-fun round_keysqtunused1 () map__ref1
  (map__refqtmk1 round_keys1))

;; "H"
(assert (= round_keys1 o9))

;; "int__content'result'unused"
(define-fun int__contentqtresultqtunused1 () Int
  key_index)

;; "Ensures"
(assert (not (= key_index 2147483647)))

;; "check_not_last'result'unused"
(define-fun check_not_lastqtresultqtunused () Int
  key_index)

;; "o"
(define-fun o10 () Int
  (+ key_index 1))

;; "infix +'result'unused"
(define-fun infix_plqtresultqtunused () Int
  o10)

;; "Ensures"
(assert (in_range o10))

;; "range_check_'result'unused"
(define-fun range_check_qtresultqtunused () Int
  o10)

(declare-const key_index1 Int)

;; "key_index'unused"
(define-fun key_indexqtunused1 () int__ref
  (int__refqtmk key_index1))

;; "H"
(assert (= key_index1 o10))

;; "map__content'result'unused"
(define-fun map__contentqtresultqtunused2 () map1
  b)

;; "o"
(define-fun o11 () map2
  (convert b))

;; "convert'result'unused"
(define-fun convertqtresultqtunused1 () map2
  o11)

;; "int__content'result'unused"
(define-fun int__contentqtresultqtunused2 () Int
  key_index1)

;; "map__content'result'unused"
(define-fun map__contentqtresultqtunused3 () map3
  round_keys1)

;; "o"
(define-fun o12 () map3
  (set1 round_keys1 key_index1 o11))

;; "set'result'unused"
(define-fun setqtresultqtunused1 () map3
  o12)

(declare-const round_keys2 map3)

;; "round_keys'unused"
(define-fun round_keysqtunused2 () map__ref1
  (map__refqtmk1 round_keys2))

;; "H"
(assert (= round_keys2 o12))

;; "temp___loop_entry_1242'unused"
(define-fun temp___loop_entry_1242qtunused () map1
  b)

;; "map__content'result'unused"
(define-fun map__contentqtresultqtunused4 () map1
  b)

;; "temp___loop_entry_1240'unused"
(define-fun temp___loop_entry_1240qtunused () map1
  a)

;; "map__content'result'unused"
(define-fun map__contentqtresultqtunused5 () map1
  a)

;; "temp___loop_entry_1238'unused"
(define-fun temp___loop_entry_1238qtunused () (_ BitVec 32)
  rcon)

;; "t__content'result'unused"
(define-fun t__contentqtresultqtunused () (_ BitVec 32)
  rcon)

;; "temp___loop_entry_1237'unused"
(define-fun temp___loop_entry_1237qtunused () Int
  key_index1)

;; "int__content'result'unused"
(define-fun int__contentqtresultqtunused3 () Int
  key_index1)

;; "temp___loop_entry_1235'unused"
(define-fun temp___loop_entry_1235qtunused () map3
  round_keys2)

;; "map__content'result'unused"
(define-fun map__contentqtresultqtunused6 () map3
  round_keys2)

;; "int__content'result'unused"
(define-fun int__contentqtresultqtunused4 () Int
  key_index1)

;; "map__content'result'unused"
(define-fun map__contentqtresultqtunused7 () map3
  round_keys2)

;; "Assert"
(assert
  (=>
    (<= 0 key_index1)
    (and (and (<= 0 0) (<= 0 14)) (and (<= 0 key_index1) (<= key_index1 14)))))

;; "o"
(define-fun o13 () map3
  (slice1 round_keys2 0 key_index1))

;; "slice'result'unused"
(define-fun sliceqtresultqtunused2 () map3
  o13)

;; "temp___1248"
(define-fun temp___1248 () us_t1
  (of_array1 o13 0 key_index1))

;; "of_array'result'unused"
(define-fun of_arrayqtresultqtunused2 () us_t1
  temp___1248)

;; "_f"
(define-fun usf () Bool
  (ite (forall ((temp___1249 Int))
         (=>
           (and (<= 0 temp___1249) (<= temp___1249 key_index1))
           (us_is_initialized (get2 o13 temp___1249))))
    true
    false))

;; "any'result'unused"
(define-fun anyqtresultqtunused () Bool
  usf)

;; "int__content'result'unused"
(define-fun int__contentqtresultqtunused5 () Int
  key_index1)

;; "o"
(define-fun o14 () Int
  (- 14 key_index1))

;; "infix -'result'unused"
(define-fun infix_mnqtresultqtunused () Int
  o14)

;; "o"
(define-fun o15 () Int
  (mod1 o14 2))

;; "mod_'result'unused"
(define-fun mod_qtresultqtunused () Int
  o15)

;; "o"
(define-fun o16 () Bool
  (ite (= o15 1) true false))

;; "infix ='result'unused"
(define-fun infix_eqqtresultqtunused () Bool
  o16)

;; "int__content'result'unused"
(define-fun int__contentqtresultqtunused6 () Int
  key_index1)

;; "o"
(define-fun o17 () Bool
  (ite (< key_index1 14) true false))

;; "infix <'result'unused"
(define-fun infix_lsqtresultqtunused () Bool
  o17)

;; "o"
(define-fun o18 () Bool
  (and o17 o16))

;; "andb'result'unused"
(define-fun andbqtresultqtunused () Bool
  o18)

;; "andb'result'unused"
(define-fun andbqtresultqtunused1 () Bool
  (and o18 usf))

(declare-const round_keys3 map3)

(declare-const key_index2 Int)

(declare-const rcon1 (_ BitVec 32))

(declare-const a1 map1)

(declare-const b1 map1)

;; "b'unused"
(define-fun bqtunused1 () map__ref
  (map__refqtmk b1))

;; "a'unused"
(define-fun aqtunused1 () map__ref
  (map__refqtmk a1))

;; "rcon'unused"
(define-fun rconqtunused1 () t__ref
  (t__refqtmk rcon1))

;; "key_index'unused"
(define-fun key_indexqtunused2 () int__ref
  (int__refqtmk key_index2))

;; "round_keys'unused"
(define-fun round_keysqtunused3 () map__ref1
  (map__refqtmk1 round_keys3))

;; "LoopInvariant"
(assert
  (and
    (and (< key_index2 14) (= (mod1 (- 14 key_index2) 2) 1))
    (forall ((temp___1258 Int))
      (=>
        (and (<= 0 temp___1258) (<= temp___1258 key_index2))
        (us_is_initialized
          (get2 (slice1 round_keys3 0 key_index2) temp___1258))))))

;; "loop_var___62223'unused"
(define-fun loop_var___62223qtunused () Int
  key_index2)

;; "int__content'result'unused"
(define-fun int__contentqtresultqtunused7 () Int
  key_index2)

;; "Assume"
(assert
  (and
    (and
      (and
        (dynamic_invariant_r round_keys3 false true true true)
        (in_range key_index2))
      (has_bounds a1 0 3))
    (has_bounds b1 0 3)))

;; "t__content'result'unused"
(define-fun t__contentqtresultqtunused1 () (_ BitVec 32)
  rcon1)

;; "map__content'result'unused"
(define-fun map__contentqtresultqtunused8 () map1
  a1)

;; "o"
(define-fun o19 () u32
  (get a1 0))

;; "get'result'unused"
(define-fun getqtresultqtunused () u32
  o19)

(declare-const o20 (_ BitVec 32))

;; "Ensures"
(assert (= (to_rep o19) o20))

;; "to_rep'result'unused"
(define-fun to_repqtresultqtunused () (_ BitVec 32)
  o20)

;; "o"
(define-fun o21 () (_ BitVec 32)
  (bvxor o20 rcon1))

;; "bw_xor'result'unused"
(define-fun bw_xorqtresultqtunused () (_ BitVec 32)
  o21)

(declare-const o22 u32)

;; "Ensures"
(assert (= (to_rep o22) o21))

;; "of_rep'result'unused"
(define-fun of_repqtresultqtunused () u32
  o22)

;; "map__content'result'unused"
(define-fun map__contentqtresultqtunused9 () map1
  a1)

;; "o"
(define-fun o23 () map1
  (set a1 0 o22))

;; "set'result'unused"
(define-fun setqtresultqtunused2 () map1
  o23)

(declare-const a2 map1)

;; "a'unused"
(define-fun aqtunused2 () map__ref
  (map__refqtmk a2))

;; "H"
(assert (= a2 o23))

;; "o"
(define-fun o24 () (_ BitVec 32)
  ((_ int2bv 32) 8))

;; "of_int'result'unused"
(define-fun of_intqtresultqtunused () (_ BitVec 32)
  o24)

;; "map__content'result'unused"
(define-fun map__contentqtresultqtunused10 () map1
  b1)

;; "o"
(define-fun o25 () u32
  (get b1 3))

;; "get'result'unused"
(define-fun getqtresultqtunused1 () u32
  o25)

(declare-const o26 (_ BitVec 32))

;; "Ensures"
(assert (= (to_rep o25) o26))

;; "to_rep'result'unused"
(define-fun to_repqtresultqtunused1 () (_ BitVec 32)
  o26)

;; "o"
(define-fun o27 () (_ BitVec 32)
  (bvor (bvshl o26 (bvurem o24 (_ bv32 32))) (bvlshr o26 (bvsub (_ bv32 32) (bvurem 
  o24 (_ bv32 32))))))

;; "rotate_left_bv'result'unused"
(define-fun rotate_left_bvqtresultqtunused () (_ BitVec 32)
  o27)

;; "o"
(define-fun o28 () (_ BitVec 32)
  (sbox o27))

;; "H"
(assert (sbox__function_guard o28 o27))

;; "H"
(assert true)

;; "sbox'result'unused"
(define-fun sboxqtresultqtunused () (_ BitVec 32)
  o28)

;; "map__content'result'unused"
(define-fun map__contentqtresultqtunused11 () map1
  a2)

;; "o"
(define-fun o29 () u32
  (get a2 0))

;; "get'result'unused"
(define-fun getqtresultqtunused2 () u32
  o29)

(declare-const o30 (_ BitVec 32))

;; "Ensures"
(assert (= (to_rep o29) o30))

;; "to_rep'result'unused"
(define-fun to_repqtresultqtunused2 () (_ BitVec 32)
  o30)

;; "o"
(define-fun o31 () (_ BitVec 32)
  (bvxor o30 o28))

;; "bw_xor'result'unused"
(define-fun bw_xorqtresultqtunused1 () (_ BitVec 32)
  o31)

(declare-const o32 u32)

;; "Ensures"
(assert (= (to_rep o32) o31))

;; "of_rep'result'unused"
(define-fun of_repqtresultqtunused1 () u32
  o32)

;; "map__content'result'unused"
(define-fun map__contentqtresultqtunused12 () map1
  a2)

;; "o"
(define-fun o33 () map1
  (set a2 0 o32))

;; "set'result'unused"
(define-fun setqtresultqtunused3 () map1
  o33)

(declare-const a3 map1)

;; "a'unused"
(define-fun aqtunused3 () map__ref
  (map__refqtmk a3))

;; "H"
(assert (= a3 o33))

;; "map__content'result'unused"
(define-fun map__contentqtresultqtunused13 () map1
  a3)

(declare-const a4 map1)

;; "a'unused"
(define-fun aqtunused4 () map__ref
  (map__refqtmk a4))

;; "H"
(assert (has_bounds a4 0 3))

;; "H"
(assert true)

;; "H"
(assert true)

;; "t__content'result'unused"
(define-fun t__contentqtresultqtunused2 () (_ BitVec 32)
  rcon1)

;; "o"
(define-fun o34 () (_ BitVec 32)
  (x_times rcon1))

;; "H"
(assert (x_times__function_guard o34 rcon1))

;; "H"
(assert true)

;; "x_times'result'unused"
(define-fun x_timesqtresultqtunused () (_ BitVec 32)
  o34)

;; "int__content'result'unused"
(define-fun int__contentqtresultqtunused8 () Int
  key_index2)

;; "Ensures"
(assert (not (= key_index2 2147483647)))

;; "check_not_last'result'unused"
(define-fun check_not_lastqtresultqtunused1 () Int
  key_index2)

;; "o"
(define-fun o35 () Int
  (+ key_index2 1))

;; "infix +'result'unused"
(define-fun infix_plqtresultqtunused1 () Int
  o35)

;; "Ensures"
(assert (in_range o35))

;; "range_check_'result'unused"
(define-fun range_check_qtresultqtunused1 () Int
  o35)

(declare-const key_index3 Int)

;; "key_index'unused"
(define-fun key_indexqtunused3 () int__ref
  (int__refqtmk key_index3))

;; "H"
(assert (= key_index3 o35))

;; "map__content'result'unused"
(define-fun map__contentqtresultqtunused14 () map1
  a4)

;; "o"
(define-fun o36 () map2
  (convert a4))

;; "convert'result'unused"
(define-fun convertqtresultqtunused2 () map2
  o36)

;; "int__content'result'unused"
(define-fun int__contentqtresultqtunused9 () Int
  key_index3)

;; "map__content'result'unused"
(define-fun map__contentqtresultqtunused15 () map3
  round_keys3)

;; "o"
(define-fun o37 () map3
  (set1 round_keys3 key_index3 o36))

;; "set'result'unused"
(define-fun setqtresultqtunused4 () map3
  o37)

(declare-const round_keys4 map3)

;; "round_keys'unused"
(define-fun round_keysqtunused4 () map__ref1
  (map__refqtmk1 round_keys4))

;; "H"
(assert (= round_keys4 o37))

;; "int__content'result'unused"
(define-fun int__contentqtresultqtunused10 () Int
  key_index3)

;; "infix ='result'unused"
(define-fun infix_eqqtresultqtunused1 () Bool
  (ite (= key_index3 14) true false))

;; "H"
(assert (not (= key_index3 14)))

;; "map__content'result'unused"
(define-fun map__contentqtresultqtunused16 () map1
  a4)

;; "o"
(define-fun o38 () u32
  (get a4 3))

;; "get'result'unused"
(define-fun getqtresultqtunused3 () u32
  o38)

(declare-const o39 (_ BitVec 32))

;; "Ensures"
(assert (= (to_rep o38) o39))

;; "to_rep'result'unused"
(define-fun to_repqtresultqtunused3 () (_ BitVec 32)
  o39)

;; "o"
(define-fun o40 () (_ BitVec 32)
  (sbox o39))

;; "H"
(assert (sbox__function_guard o40 o39))

;; "H"
(assert true)

;; "sbox'result'unused"
(define-fun sboxqtresultqtunused1 () (_ BitVec 32)
  o40)

;; "map__content'result'unused"
(define-fun map__contentqtresultqtunused17 () map1
  b1)

;; "o"
(define-fun o41 () u32
  (get b1 0))

;; "get'result'unused"
(define-fun getqtresultqtunused4 () u32
  o41)

(declare-const o42 (_ BitVec 32))

;; "Ensures"
(assert (= (to_rep o41) o42))

;; "to_rep'result'unused"
(define-fun to_repqtresultqtunused4 () (_ BitVec 32)
  o42)

;; "o"
(define-fun o43 () (_ BitVec 32)
  (bvxor o42 o40))

;; "bw_xor'result'unused"
(define-fun bw_xorqtresultqtunused2 () (_ BitVec 32)
  o43)

(declare-const o44 u32)

;; "Ensures"
(assert (= (to_rep o44) o43))

;; "of_rep'result'unused"
(define-fun of_repqtresultqtunused2 () u32
  o44)

;; "map__content'result'unused"
(define-fun map__contentqtresultqtunused18 () map1
  b1)

;; "o"
(define-fun o45 () map1
  (set b1 0 o44))

;; "set'result'unused"
(define-fun setqtresultqtunused5 () map1
  o45)

(declare-const b2 map1)

;; "b'unused"
(define-fun bqtunused2 () map__ref
  (map__refqtmk b2))

;; "H"
(assert (= b2 o45))

;; "map__content'result'unused"
(define-fun map__contentqtresultqtunused19 () map1
  b2)

(declare-const b3 map1)

;; "b'unused"
(define-fun bqtunused3 () map__ref
  (map__refqtmk b3))

;; "H"
(assert (has_bounds b3 0 3))

;; "H"
(assert true)

;; "H"
(assert true)

;; "int__content'result'unused"
(define-fun int__contentqtresultqtunused11 () Int
  key_index3)

;; "Ensures"
(assert (not (= key_index3 2147483647)))

;; "check_not_last'result'unused"
(define-fun check_not_lastqtresultqtunused2 () Int
  key_index3)

;; "o"
(define-fun o46 () Int
  (+ key_index3 1))

;; "infix +'result'unused"
(define-fun infix_plqtresultqtunused2 () Int
  o46)

;; "Ensures"
(assert (in_range o46))

;; "range_check_'result'unused"
(define-fun range_check_qtresultqtunused2 () Int
  o46)

(declare-const key_index4 Int)

;; "key_index'unused"
(define-fun key_indexqtunused4 () int__ref
  (int__refqtmk key_index4))

;; "H"
(assert (= key_index4 o46))

;; "map__content'result'unused"
(define-fun map__contentqtresultqtunused20 () map1
  b3)

;; "o"
(define-fun o47 () map2
  (convert b3))

;; "convert'result'unused"
(define-fun convertqtresultqtunused3 () map2
  o47)

;; "int__content'result'unused"
(define-fun int__contentqtresultqtunused12 () Int
  key_index4)

;; "map__content'result'unused"
(define-fun map__contentqtresultqtunused21 () map3
  round_keys4)

;; "o"
(define-fun o48 () map3
  (set1 round_keys4 key_index4 o47))

;; "set'result'unused"
(define-fun setqtresultqtunused6 () map3
  o48)

(declare-const round_keys5 map3)

;; "round_keys'unused"
(define-fun round_keysqtunused5 () map__ref1
  (map__refqtmk1 round_keys5))

;; "H"
(assert (= round_keys5 o48))

;; "int__content'result'unused"
(define-fun int__contentqtresultqtunused13 () Int
  key_index4)

;; "map__content'result'unused"
(define-fun map__contentqtresultqtunused22 () map3
  round_keys5)

;; "H"
(assert (<= 0 key_index4))

;; Goal "def'vc"
;; File "sparknacl-aes.ads", line 55, characters 0-0
(assert
  (not (<= 0 14)))

(check-sat)
